27	3

10	10	10	

0	0	0	0	3	2	3	4	
4	3	5	2	3	5	6	8	
5	5	4	3	2	5	6	
6	5	2	2	2	5	7	
3	4	1	4	2	9	10	
1	5	5	4	2	9	10	
5	3	5	2	2	9	11	
1	2	4	4	3	9	10	12	
3	3	2	2	2	14	16	
1	3	2	4	1	14	
4	3	3	2	2	13	15	
1	4	1	4	1	13	
2	1	4	4	1	17	
6	2	2	2	1	18	
3	5	5	4	2	17	20	
6	1	5	4	2	18	19	
2	4	5	4	1	22	
7	3	2	3	2	21	23	
6	5	3	3	1	21	
1	2	4	6	2	21	24	
6	1	6	2	1	25	
2	3	2	1	2	25	26	
2	1	0	4	1	25	
3	2	2	1	1	25	
3	0	1	3	1	27	
2	2	2	2	1	27	
0	0	0	0	0	
